g3 0 1 0	# problem explin2
 120 0 1 0 0	# vars, constraints, objectives, ranges, eqns
 0 1	# nonlinear constraints, objectives
 0 0	# network constraints: nonlinear, linear
 0 11 0	# nonlinear vars in constraints, objectives, both
 0 0 0 1	# linear network variables; functions; arith, flags
 0 0 0 0 0	# discrete variables: binary, integer, nonlinear (b,c,o)
 0 120	# nonzeros in Jacobian, gradients
 0 0	# max name lengths: constraints, variables
 0 0 0 0 0	# common exprs: b,c,o,c1,o1
b
0 0 10
0 0 10
0 0 10
0 0 10
0 0 10
0 0 10
0 0 10
0 0 10
0 0 10
0 0 10
0 0 10
0 0 10
0 0 10
0 0 10
0 0 10
0 0 10
0 0 10
0 0 10
0 0 10
0 0 10
0 0 10
0 0 10
0 0 10
0 0 10
0 0 10
0 0 10
0 0 10
0 0 10
0 0 10
0 0 10
0 0 10
0 0 10
0 0 10
0 0 10
0 0 10
0 0 10
0 0 10
0 0 10
0 0 10
0 0 10
0 0 10
0 0 10
0 0 10
0 0 10
0 0 10
0 0 10
0 0 10
0 0 10
0 0 10
0 0 10
0 0 10
0 0 10
0 0 10
0 0 10
0 0 10
0 0 10
0 0 10
0 0 10
0 0 10
0 0 10
0 0 10
0 0 10
0 0 10
0 0 10
0 0 10
0 0 10
0 0 10
0 0 10
0 0 10
0 0 10
0 0 10
0 0 10
0 0 10
0 0 10
0 0 10
0 0 10
0 0 10
0 0 10
0 0 10
0 0 10
0 0 10
0 0 10
0 0 10
0 0 10
0 0 10
0 0 10
0 0 10
0 0 10
0 0 10
0 0 10
0 0 10
0 0 10
0 0 10
0 0 10
0 0 10
0 0 10
0 0 10
0 0 10
0 0 10
0 0 10
0 0 10
0 0 10
0 0 10
0 0 10
0 0 10
0 0 10
0 0 10
0 0 10
0 0 10
0 0 10
0 0 10
0 0 10
0 0 10
0 0 10
0 0 10
0 0 10
0 0 10
0 0 10
0 0 10
0 0 10
x120
0 0
1 0
2 0
3 0
4 0
5 0
6 0
7 0
8 0
9 0
10 0
11 0
12 0
13 0
14 0
15 0
16 0
17 0
18 0
19 0
20 0
21 0
22 0
23 0
24 0
25 0
26 0
27 0
28 0
29 0
30 0
31 0
32 0
33 0
34 0
35 0
36 0
37 0
38 0
39 0
40 0
41 0
42 0
43 0
44 0
45 0
46 0
47 0
48 0
49 0
50 0
51 0
52 0
53 0
54 0
55 0
56 0
57 0
58 0
59 0
60 0
61 0
62 0
63 0
64 0
65 0
66 0
67 0
68 0
69 0
70 0
71 0
72 0
73 0
74 0
75 0
76 0
77 0
78 0
79 0
80 0
81 0
82 0
83 0
84 0
85 0
86 0
87 0
88 0
89 0
90 0
91 0
92 0
93 0
94 0
95 0
96 0
97 0
98 0
99 0
100 0
101 0
102 0
103 0
104 0
105 0
106 0
107 0
108 0
109 0
110 0
111 0
112 0
113 0
114 0
115 0
116 0
117 0
118 0
119 0
O0 0
o54
10
o44
o3
o2
o2
n0.1
v0
v1
n10
o44
o3
o2
o2
n0.2
v1
v2
n10
o44
o3
o2
o2
n0.30000000000000004
v2
v3
n10
o44
o3
o2
o2
n0.4
v3
v4
n10
o44
o3
o2
o2
n0.5
v4
v5
n10
o44
o3
o2
o2
n0.6000000000000001
v5
v6
n10
o44
o3
o2
o2
n0.7000000000000001
v6
v7
n10
o44
o3
o2
o2
n0.8
v7
v8
n10
o44
o3
o2
o2
n0.9
v8
v9
n10
o44
o3
o2
v9
v10
n10
k119
0
0
0
0
0
0
0
0
0
0
0
0
0
0
0
0
0
0
0
0
0
0
0
0
0
0
0
0
0
0
0
0
0
0
0
0
0
0
0
0
0
0
0
0
0
0
0
0
0
0
0
0
0
0
0
0
0
0
0
0
0
0
0
0
0
0
0
0
0
0
0
0
0
0
0
0
0
0
0
0
0
0
0
0
0
0
0
0
0
0
0
0
0
0
0
0
0
0
0
0
0
0
0
0
0
0
0
0
0
0
0
0
0
0
0
0
0
0
0
G0 120
0 -10
1 -20
2 -30
3 -40
4 -50
5 -60
6 -70
7 -80
8 -90
9 -100
10 -110
11 -120
12 -130
13 -140
14 -150
15 -160
16 -170
17 -180
18 -190
19 -200
20 -210
21 -220
22 -230
23 -240
24 -250
25 -260
26 -270
27 -280
28 -290
29 -300
30 -310
31 -320
32 -330
33 -340
34 -350
35 -360
36 -370
37 -380
38 -390
39 -400
40 -410
41 -420
42 -430
43 -440
44 -450
45 -460
46 -470
47 -480
48 -490
49 -500
50 -510
51 -520
52 -530
53 -540
54 -550
55 -560
56 -570
57 -580
58 -590
59 -600
60 -610
61 -620
62 -630
63 -640
64 -650
65 -660
66 -670
67 -680
68 -690
69 -700
70 -710
71 -720
72 -730
73 -740
74 -750
75 -760
76 -770
77 -780
78 -790
79 -800
80 -810
81 -820
82 -830
83 -840
84 -850
85 -860
86 -870
87 -880
88 -890
89 -900
90 -910
91 -920
92 -930
93 -940
94 -950
95 -960
96 -970
97 -980
98 -990
99 -1000
100 -1010
101 -1020
102 -1030
103 -1040
104 -1050
105 -1060
106 -1070
107 -1080
108 -1090
109 -1100
110 -1110
111 -1120
112 -1130
113 -1140
114 -1150
115 -1160
116 -1170
117 -1180
118 -1190
119 -1200
